20
1 0 29
2 0 30
2 1 3
3 0 32
3 1 27
3 2 42
4 2 66
4 3 60
5 1 75
5 2 56
5 3 58
5 4 69
6 0 43
6 1 43
6 2 32
6 4 6
6 5 77
7 0 33
7 1 31
7 2 76
7 3 49
7 4 5
7 5 80
8 0 53
8 1 17
8 2 6
8 3 34
8 5 3
8 6 38
8 7 13
9 0 30
9 1 1
9 2 36
9 3 78
9 4 73
9 5 65
9 6 20
9 7 32
9 8 33
10 0 7
10 1 80
10 2 38
10 3 17
10 4 33
10 5 30
10 6 58
10 7 44
10 9 4
11 0 37
11 1 5
11 2 63
11 3 11
11 4 78
11 6 3
11 7 61
11 8 69
11 9 12
11 10 9
12 0 11
12 1 48
12 2 68
12 3 77
12 4 14
12 5 26
12 6 38
12 7 2
12 8 15
12 9 1
12 10 44
13 0 7
13 1 22
13 2 70
13 4 7
13 5 51
13 6 3
13 7 28
13 8 76
13 9 44
13 10 13
13 11 8
14 0 3
14 1 16
14 2 20
14 3 38
14 4 67
14 5 77
14 6 19
14 7 38
14 8 74
14 9 36
14 10 65
14 11 60
14 12 7
14 13 37
15 0 59
15 1 56
15 3 12
15 4 78
15 6 22
15 8 70
15 9 75
15 10 26
15 11 37
15 12 52
15 13 14
15 14 76
16 1 22
16 2 27
16 3 15
16 4 56
16 5 15
16 6 59
16 7 8
16 8 19
16 9 31
16 10 38
16 11 8
16 12 60
16 13 39
16 14 18
16 15 40
17 0 7
17 1 6
17 2 38
17 6 47
17 8 4
17 9 41
17 10 65
17 11 66
17 12 77
17 13 40
17 14 12
17 15 75
18 0 24
18 2 62
18 3 5
18 4 68
18 5 36
18 6 2
18 8 45
18 9 10
18 10 31
18 11 57
18 12 5
18 13 12
18 14 49
18 15 14
18 16 64
18 17 72
19 2 18
19 3 23
19 4 30
19 5 67
19 6 25
19 7 26
19 8 42
19 9 14
19 10 37
19 11 44
19 13 53
19 14 4
19 15 33
19 16 79
19 17 28
19 18 39
